%chk=C:\byc\C2H6.chk
# hf/3-21g geom=connectivity

Title Card Required

0 1
 C                 -0.98461531    2.09230766    0.00000000
 H                 -0.62794247    2.59670585    0.87365150
 H                 -0.62794247    2.59670585   -0.87365150
 H                 -2.05461531    2.09232085    0.00000000
 C                 -0.47129959    0.64037551    0.00000000
 H                 -0.82797468    0.13597652   -0.87365013
 H                  0.59870041    0.64036286   -0.00000236
 H                 -0.82797026    0.13597755    0.87365253

 1 2 1.0 3 1.0 4 1.0 5 1.0
 2
 3
 4
 5 6 1.0 7 1.0 8 1.0
 6
 7
 8

